NAME: random-46-13251
TYPE: TSP
COMMENT: size=46 seed=13251
DIMENSION: 94
EDGE_WEIGHT_TYPE: EUC_2D
NODE_COORD_SECTION
+0 557 778
-0 557 778
+1 257 325
-1 463 613
+2 26 864
-2 33 761
+3 375 216
-3 661 960
+4 306 985
-4 80 17
+5 849 719
-5 771 544
+6 396 829
-6 803 523
+7 552 808
-7 233 273
+8 893 701
-8 119 80
+9 928 518
-9 925 944
+10 86 379
-10 618 982
+11 184 934
-11 485 60
+12 83 653
-12 319 893
+13 658 570
-13 948 708
+14 562 778
-14 621 759
+15 633 971
-15 672 155
+16 820 488
-16 905 714
+17 202 64
-17 600 1
+18 248 387
-18 822 676
+19 17 575
-19 445 284
+20 922 927
-20 9 817
+21 32 671
-21 870 440
+22 980 20
-22 958 700
+23 558 135
-23 448 196
+24 96 537
-24 442 56
+25 758 747
-25 786 967
+26 95 480
-26 523 908
+27 387 469
-27 486 976
+28 839 384
-28 872 219
+29 943 256
-29 878 396
+30 625 21
-30 861 625
+31 813 933
-31 447 217
+32 647 533
-32 251 535
+33 758 736
-33 53 432
+34 11 474
-34 761 163
+35 197 561
-35 495 246
+36 853 138
-36 927 634
+37 105 475
-37 216 53
+38 355 107
-38 144 287
+39 226 797
-39 816 899
+40 125 495
-40 837 899
+41 113 238
-41 23 837
+42 781 295
-42 240 349
+43 126 835
-43 17 963
+44 659 779
-44 454 346
+45 378 996
-45 79 74
+46 799 391
-46 261 667
PRECEDENCE_SECTION
+0 -0
+1 -1
+2 -2
+3 -3
+4 -4
+5 -5
+6 -6
+7 -7
+8 -8
+9 -9
+10 -10
+11 -11
+12 -12
+13 -13
+14 -14
+15 -15
+16 -16
+17 -17
+18 -18
+19 -19
+20 -20
+21 -21
+22 -22
+23 -23
+24 -24
+25 -25
+26 -26
+27 -27
+28 -28
+29 -29
+30 -30
+31 -31
+32 -32
+33 -33
+34 -34
+35 -35
+36 -36
+37 -37
+38 -38
+39 -39
+40 -40
+41 -41
+42 -42
+43 -43
+44 -44
+45 -45
+46 -46
EOF
